Minimize
  - 21 y_0 - 52 y_1 - 40 y_2 - 18 y_3 - 41 y_4 - 31 y_5 - y_6 - 24 y_7
   - 36 y_8 - 26 y_9 - 48 y_10 - 50 y_11 - 34 y_12 - 17 y_13 - 33 y_14
   - 34 y_15 - 53 y_16 - 34 y_17 - 34 y_18 - 41 y_19 - 8 y_20 - 23 y_21
   - 49 y_22 - 47 y_23 - 10 y_24 - 45 y_25 - 55 y_26 - 6 y_27 - 31 y_28
   - 37 y_29 - 43 y_30 - 13 y_31 - 28 y_32 - 36 y_33 - 47 y_34 - 40 y_35
   - 42 y_36 - 17 y_37 - 50 y_38 - 50 y_40 - 8 y_41 - 36 y_42 - 31 y_43
   - 54 y_44 - 28 y_45 - 42 y_46 - 35 y_47 - 33 y_48 - 27 y_49 + 63 x_0_1
   + 38 x_0_3 + 40 x_0_4 + 40 x_0_6 + 49 x_0_7 + 65 x_0_10 + 62 x_0_11
   + 34 x_0_12 + 39 x_0_13 + 67 x_0_16 + 62 x_0_17 + 25 x_0_21 + 60 x_0_22
   + 77 x_0_23 + 31 x_0_24 + 67 x_0_25 + 74 x_0_26 + 31 x_0_27 + 38 x_0_29
   + 55 x_0_30 + 26 x_0_32 + 69 x_0_34 + 42 x_0_35 + 61 x_0_38 + 64 x_0_40
   + 45 x_0_41 + 52 x_0_42 + 22 x_0_43 + 72 x_0_44 + 15 x_0_45 + 38 x_0_47
   + 26 x_1_2 + 82 x_1_3 + 23 x_1_4 + 101 x_1_6 + 85 x_1_7 + 36 x_1_8
   + 53 x_1_9 + 37 x_1_10 + 66 x_1_12 + 84 x_1_13 + 8 x_1_16 + 55 x_1_19
   + 63 x_1_21 + 18 x_1_22 + 70 x_1_23 + 88 x_1_24 + 23 x_1_26 + 94 x_1_27
   + 37 x_1_30 + 78 x_1_31 + 52 x_1_32 + 54 x_1_33 + 53 x_1_34 + 27 x_1_35
   + 87 x_1_37 + 13 x_1_38 + 104 x_1_39 + 101 x_1_41 + 59 x_1_42
   + 48 x_1_45 + 85 x_1_46 + 69 x_1_47 + 66 x_1_48 + 60 x_1_49 + 63 x_2_3
   + 3 x_2_4 + 77 x_2_6 + 68 x_2_7 + 22 x_2_8 + 28 x_2_9 + 29 x_2_11
   + 43 x_2_12 + 55 x_2_14 + 17 x_2_15 + 71 x_2_17 + 41 x_2_18 + 51 x_2_19
   + 43 x_2_21 + 29 x_2_22 + 65 x_2_24 + 55 x_2_25 + 41 x_2_26 + 69 x_2_27
   + 22 x_2_28 + 41 x_2_29 + 55 x_2_31 + 33 x_2_32 + 45 x_2_33 + 17 x_2_35
   + 26 x_2_36 + 68 x_2_37 + 80 x_2_39 + 36 x_2_40 + 79 x_2_41 + 50 x_2_42
   + 19 x_2_43 + 43 x_2_44 + 24 x_2_45 + 79 x_2_46 + 47 x_2_47 + 54 x_2_48
   + 65 x_3_4 + 70 x_3_5 + 34 x_3_6 + 47 x_3_8 + 65 x_3_10 + 75 x_3_11
   + 72 x_3_12 + 2 x_3_13 + 77 x_3_14 + 82 x_3_16 + 20 x_3_20 + 18 x_3_24
   + 55 x_3_25 + 76 x_3_29 + 21 x_3_31 + 30 x_3_32 + 39 x_3_33 + 56 x_3_35
   + 78 x_3_36 + 5 x_3_37 + 36 x_3_39 + 70 x_3_40 + 24 x_3_41 + 37 x_3_42
   + 44 x_3_43 + 78 x_3_44 + 76 x_3_47 + 51 x_4_5 + 80 x_4_6 + 70 x_4_7
   + 31 x_4_9 + 42 x_4_10 + 27 x_4_11 + 66 x_4_13 + 57 x_4_14 + 28 x_4_16
   + 71 x_4_17 + 43 x_4_18 + 51 x_4_19 + 45 x_4_21 + 27 x_4_22 + 69 x_4_23
   + 67 x_4_24 + 54 x_4_25 + 39 x_4_26 + 71 x_4_27 + 24 x_4_28 + 42 x_4_29
   + 35 x_4_32 + 54 x_4_34 + 17 x_4_35 + 26 x_4_36 + 70 x_4_37 + 25 x_4_38
   + 82 x_4_39 + 35 x_4_40 + 81 x_4_41 + 21 x_4_43 + 41 x_4_44 + 26 x_4_45
   + 79 x_4_46 + 49 x_4_47 + 55 x_4_48 + 82 x_5_7 + 37 x_5_9 + 89 x_5_10
   + 78 x_5_11 + 79 x_5_16 + 95 x_5_17 + 11 x_5_18 + 88 x_5_19 + 62 x_5_20
   + 57 x_5_21 + 78 x_5_22 + 107 x_5_23 + 59 x_5_24 + 95 x_5_25 + 49 x_5_27
   + 50 x_5_28 + 80 x_5_30 + 50 x_5_31 + 57 x_5_32 + 79 x_5_33 + 97 x_5_34
   + 34 x_5_36 + 73 x_5_37 + 76 x_5_38 + 61 x_5_39 + 70 x_5_41 + 45 x_5_43
   + 92 x_5_44 + 40 x_5_45 + 109 x_5_46 + 9 x_5_47 + 70 x_6_8 + 94 x_6_10
   + 98 x_6_11 + 32 x_6_13 + 65 x_6_14 + 104 x_6_16 + 67 x_6_18 + 13 x_6_20
   + 95 x_6_22 + 92 x_6_23 + 87 x_6_25 + 108 x_6_26 + 84 x_6_30 + 24 x_6_31
   + 53 x_6_32 + 91 x_6_34 + 77 x_6_35 + 97 x_6_38 + 3 x_6_39 + 69 x_6_42
   + 59 x_6_43 + 54 x_6_45 + 82 x_6_46 + 68 x_6_47 + 63 x_6_48 + 51 x_6_49
   + 50 x_7_8 + 50 x_7_9 + 62 x_7_10 + 76 x_7_11 + 84 x_7_12 + 14 x_7_13
   + 89 x_7_14 + 68 x_7_15 + 84 x_7_16 + 83 x_7_18 + 41 x_7_19 + 27 x_7_21
   + 71 x_7_22 + 49 x_7_23 + 47 x_7_28 + 87 x_7_29 + 54 x_7_30 + 35 x_7_32
   + 35 x_7_33 + 54 x_7_34 + 58 x_7_35 + 87 x_7_36 + 75 x_7_38 + 47 x_7_39
   + 69 x_7_40 + 33 x_7_41 + 32 x_7_42 + 51 x_7_43 + 76 x_7_44 + 36 x_7_46
   + 88 x_7_47 + 24 x_7_48 + 63 x_7_49 + 28 x_8_10 + 28 x_8_11 + 58 x_8_12
   + 69 x_8_14 + 32 x_8_15 + 36 x_8_16 + 49 x_8_17 + 56 x_8_18 + 34 x_8_25
   + 38 x_8_26 + 64 x_8_27 + 13 x_8_28 + 57 x_8_29 + 46 x_8_31 + 17 x_8_32
   + 35 x_8_34 + 9 x_8_35 + 47 x_8_36 + 52 x_8_37 + 28 x_8_38 + 72 x_8_39
   + 28 x_8_40 + 67 x_8_41 + 16 x_8_43 + 36 x_8_44 + 23 x_8_45 + 57 x_8_46
   + 62 x_8_47 + 42 x_8_49 + 52 x_9_11 + 36 x_9_12 + 41 x_9_13 + 45 x_9_14
   + 57 x_9_16 + 59 x_9_17 + 35 x_9_18 + 52 x_9_19 + 42 x_9_20 + 23 x_9_21
   + 50 x_9_22 + 70 x_9_23 + 64 x_9_26 + 14 x_9_28 + 42 x_9_33 + 61 x_9_34
   + 32 x_9_35 + 38 x_9_36 + 51 x_9_38 + 51 x_9_39 + 54 x_9_40 + 52 x_9_41
   + 46 x_9_42 + 12 x_9_43 + 5 x_9_45 + 40 x_9_47 + 45 x_9_48 + 16 x_9_49
   + 23 x_10_11 + 84 x_10_12 + 67 x_10_13 + 57 x_10_15 + 31 x_10_16
   + 51 x_10_17 + 82 x_10_18 + 82 x_10_20 + 51 x_10_21 + 19 x_10_22
   + 89 x_10_27 + 83 x_10_29 + 10 x_10_30 + 42 x_10_32 + 16 x_10_34
   + 27 x_10_35 + 70 x_10_37 + 96 x_10_39 + 11 x_10_40 + 88 x_10_41
   + 31 x_10_42 + 15 x_10_44 + 51 x_10_45 + 88 x_10_47 + 39 x_10_48
   + 70 x_10_49 + 72 x_11_12 + 76 x_11_13 + 45 x_11_15 + 88 x_11_20
   + 5 x_11_22 + 56 x_11_23 + 83 x_11_24 + 41 x_11_25 + 13 x_11_26
   + 91 x_11_27 + 69 x_11_29 + 24 x_11_30 + 46 x_11_32 + 39 x_11_34
   + 21 x_11_35 + 51 x_11_36 + 2 x_11_38 + 100 x_11_39 + 12 x_11_40
   + 95 x_11_41 + 47 x_11_42 + 40 x_11_43 + 72 x_11_46 + 75 x_11_47
   + 62 x_11_49 + 73 x_12_13 + 12 x_12_14 + 73 x_12_16 + 95 x_12_17
   + 3 x_12_18 + 66 x_12_20 + 58 x_12_21 + 72 x_12_22 + 105 x_12_23
   + 63 x_12_24 + 92 x_12_25 + 84 x_12_26 + 55 x_12_27 + 47 x_12_28
   + 7 x_12_29 + 76 x_12_30 + 54 x_12_31 + 56 x_12_32 + 77 x_12_33
   + 93 x_12_34 + 57 x_12_35 + 26 x_12_36 + 76 x_12_37 + 68 x_12_39
   + 79 x_12_40 + 81 x_12_42 + 42 x_12_43 + 86 x_12_44 + 108 x_12_46
   + 81 x_12_48 + 20 x_12_49 + 61 x_13_15 + 73 x_13_18 + 48 x_13_19
   + 21 x_13_21 + 73 x_13_22 + 17 x_13_24 + 42 x_13_28 + 77 x_13_29
   + 21 x_13_31 + 61 x_13_34 + 57 x_13_35 + 79 x_13_36 + 3 x_13_37
   + 76 x_13_38 + 72 x_13_40 + 22 x_13_41 + 46 x_13_43 + 43 x_13_45
   + 50 x_13_46 + 77 x_13_47 + 53 x_13_49 + 39 x_14_15 + 85 x_14_16
   + 102 x_14_17 + 15 x_14_18 + 96 x_14_19 + 68 x_14_20 + 65 x_14_21
   + 84 x_14_22 + 115 x_14_23 + 66 x_14_24 + 102 x_14_25 + 96 x_14_26
   + 55 x_14_27 + 57 x_14_28 + 17 x_14_29 + 87 x_14_30 + 57 x_14_31
   + 64 x_14_32 + 87 x_14_33 + 104 x_14_34 + 80 x_14_37 + 82 x_14_38
   + 76 x_14_41 + 91 x_14_42 + 53 x_14_43 + 98 x_14_44 + 47 x_14_45
   + 116 x_14_46 + 9 x_14_47 + 90 x_14_48 + 28 x_14_49 + 48 x_15_16
   + 75 x_15_17 + 61 x_15_19 + 41 x_15_21 + 45 x_15_22 + 80 x_15_23
   + 66 x_15_25 + 58 x_15_26 + 57 x_15_27 + 23 x_15_28 + 26 x_15_29
   + 49 x_15_30 + 46 x_15_31 + 34 x_15_32 + 53 x_15_33 + 67 x_15_34
   + 19 x_15_36 + 64 x_15_37 + 44 x_15_38 + 52 x_15_40 + 58 x_15_42
   + 59 x_15_44 + 18 x_15_45 + 86 x_15_46 + 31 x_15_47 + 59 x_15_48
   + 18 x_15_49 + 51 x_16_19 + 94 x_16_20 + 64 x_16_21 + 13 x_16_22
   + 89 x_16_24 + 49 x_16_25 + 33 x_16_30 + 51 x_16_33 + 47 x_16_34
   + 27 x_16_35 + 88 x_16_37 + 9 x_16_38 + 56 x_16_42 + 45 x_16_43
   + 52 x_16_45 + 80 x_16_46 + 76 x_16_47 + 63 x_16_48 + 65 x_16_49
   + 94 x_17_18 + 29 x_17_19 + 52 x_17_20 + 37 x_17_21 + 65 x_17_22
   + 67 x_17_27 + 51 x_17_28 + 97 x_17_29 + 46 x_17_30 + 51 x_17_31
   + 40 x_17_32 + 39 x_17_34 + 57 x_17_35 + 92 x_17_36 + 70 x_17_38
   + 67 x_17_39 + 53 x_17_41 + 56 x_17_43 + 66 x_17_44 + 58 x_17_45
   + 17 x_17_46 + 16 x_17_48 + 75 x_17_49 + 84 x_18_19 + 69 x_18_22
   + 103 x_18_23 + 82 x_18_26 + 45 x_18_28 + 5 x_18_29 + 54 x_18_32
   + 75 x_18_33 + 55 x_18_35 + 23 x_18_36 + 75 x_18_37 + 68 x_18_38
   + 69 x_18_39 + 77 x_18_40 + 76 x_18_41 + 41 x_18_43 + 36 x_18_45
   + 107 x_18_46 + 6 x_18_47 + 80 x_18_48 + 19 x_19_23 + 62 x_19_24
   + 44 x_19_26 + 76 x_19_27 + 39 x_19_28 + 86 x_19_29 + 19 x_19_30
   + 57 x_19_31 + 33 x_19_32 + 10 x_19_33 + 35 x_19_35 + 76 x_19_36
   + 51 x_19_37 + 43 x_19_38 + 81 x_19_39 + 32 x_19_40 + 70 x_19_41
   + 10 x_19_42 + 43 x_19_43 + 37 x_19_44 + 48 x_19_45 + 29 x_19_46
   + 17 x_19_48 + 31 x_20_21 + 84 x_20_22 + 78 x_20_23 + 5 x_20_24
   + 97 x_20_26 + 17 x_20_27 + 49 x_20_28 + 72 x_20_29 + 72 x_20_30
   + 15 x_20_31 + 42 x_20_32 + 57 x_20_33 + 78 x_20_34 + 67 x_20_35
   + 78 x_20_36 + 19 x_20_37 + 87 x_20_38 + 85 x_20_40 + 9 x_20_41
   + 56 x_20_42 + 51 x_20_43 + 69 x_20_47 + 49 x_20_48 + 49 x_20_49
   + 47 x_21_25 + 61 x_21_29 + 11 x_21_32 + 50 x_21_34 + 24 x_21_37
   + 56 x_21_38 + 45 x_21_39 + 38 x_21_41 + 25 x_21_43 + 62 x_21_44
   + 23 x_21_45 + 52 x_21_46 + 26 x_21_48 + 79 x_22_24 + 36 x_22_25
   + 88 x_22_27 + 37 x_22_28 + 69 x_22_29 + 19 x_22_30 + 71 x_22_31
   + 42 x_22_32 + 37 x_22_33 + 34 x_22_34 + 52 x_22_36 + 76 x_22_37
   + 5 x_22_38 + 97 x_22_39 + 92 x_22_41 + 38 x_22_43 + 14 x_22_44
   + 45 x_22_45 + 50 x_22_48 + 61 x_22_49 + 75 x_23_24 + 15 x_23_25
   + 54 x_23_26 + 91 x_23_27 + 58 x_23_28 + 105 x_23_29 + 34 x_23_30
   + 51 x_23_32 + 28 x_23_33 + 52 x_23_35 + 94 x_23_36 + 61 x_23_37
   + 57 x_23_38 + 94 x_23_39 + 44 x_23_40 + 81 x_23_41 + 62 x_23_43
   + 46 x_23_44 + 67 x_23_45 + 20 x_23_46 + 109 x_23_47 + 29 x_23_48
   + 87 x_23_49 + 92 x_24_26 + 17 x_24_27 + 44 x_24_28 + 68 x_24_29
   + 67 x_24_30 + 11 x_24_31 + 53 x_24_33 + 74 x_24_34 + 82 x_24_38
   + 80 x_24_40 + 14 x_24_41 + 52 x_24_42 + 46 x_24_43 + 88 x_24_44
   + 66 x_24_47 + 46 x_24_48 + 45 x_24_49 + 40 x_25_26 + 45 x_25_28
   + 92 x_25_29 + 19 x_25_30 + 66 x_25_31 + 18 x_25_33 + 4 x_25_34
   + 38 x_25_35 + 80 x_25_36 + 90 x_25_39 + 29 x_25_40 + 18 x_25_42
   + 50 x_25_43 + 33 x_25_44 + 55 x_25_45 + 32 x_25_46 + 26 x_25_48
   + 102 x_26_27 + 50 x_26_28 + 81 x_26_29 + 28 x_26_30 + 84 x_26_31
   + 55 x_26_32 + 47 x_26_33 + 37 x_26_34 + 32 x_26_35 + 63 x_26_36
   + 88 x_26_37 + 14 x_26_38 + 110 x_26_39 + 13 x_26_40 + 104 x_26_41
   + 51 x_26_42 + 52 x_26_43 + 8 x_26_44 + 58 x_26_45 + 88 x_26_47
   + 59 x_26_48 + 74 x_26_49 + 52 x_27_28 + 62 x_27_29 + 79 x_27_30
   + 67 x_27_33 + 89 x_27_34 + 72 x_27_36 + 35 x_27_37 + 90 x_27_38
   + 12 x_27_39 + 91 x_27_40 + 67 x_27_42 + 52 x_27_43 + 99 x_27_44
   + 83 x_27_46 + 58 x_27_47 + 62 x_27_48 + 48 x_28_29 + 32 x_28_30
   + 12 x_28_32 + 30 x_28_33 + 19 x_28_35 + 41 x_28_36 + 46 x_28_37
   + 38 x_28_38 + 61 x_28_39 + 40 x_28_40 + 58 x_28_41 + 35 x_28_42
   + 5 x_28_43 + 10 x_28_45 + 62 x_28_46 + 51 x_28_47 + 36 x_28_48
   + 30 x_28_49 + 75 x_29_30 + 58 x_29_31 + 57 x_29_32 + 78 x_29_33
   + 56 x_29_35 + 80 x_29_37 + 81 x_29_41 + 82 x_29_42 + 43 x_29_43
   + 83 x_29_44 + 110 x_29_46 + 8 x_29_47 + 31 x_30_32 + 18 x_30_34
   + 19 x_30_35 + 60 x_30_37 + 24 x_30_38 + 15 x_30_40 + 24 x_30_42
   + 35 x_30_43 + 41 x_30_45 + 48 x_30_46 + 31 x_30_48 + 61 x_30_49
   + 29 x_31_32 + 53 x_31_35 + 64 x_31_36 + 73 x_31_38 + 24 x_31_41
   + 49 x_31_42 + 31 x_31_45 + 67 x_31_46 + 57 x_31_47 + 35 x_31_49
   + 23 x_32_33 + 43 x_32_34 + 35 x_32_37 + 55 x_32_39 + 16 x_32_43
   + 52 x_32_44 + 60 x_32_47 + 26 x_32_48 + 36 x_32_49 + 30 x_33_35
   + 42 x_33_38 + 72 x_33_39 + 34 x_33_40 + 62 x_33_41 + 35 x_33_43
   + 41 x_33_44 + 39 x_33_45 + 34 x_33_46 + 81 x_33_47 + 12 x_33_48
   + 59 x_33_49 + 80 x_34_36 + 64 x_34_37 + 40 x_34_38 + 94 x_34_39
   + 83 x_34_41 + 51 x_34_43 + 29 x_34_44 + 57 x_34_45 + 97 x_34_47
   + 30 x_34_48 + 77 x_34_49 + 42 x_35_36 + 61 x_35_37 + 20 x_35_38
   + 75 x_35_41 + 20 x_35_43 + 27 x_35_45 + 63 x_35_46 + 44 x_35_49
   + 82 x_36_37 + 49 x_36_38 + 84 x_36_39 + 61 x_36_40 + 74 x_36_42
   + 36 x_36_43 + 103 x_36_46 + 31 x_36_49 + 75 x_37_40 + 41 x_37_42
   + 49 x_37_43 + 50 x_37_46 + 79 x_37_47 + 99 x_38_39 + 14 x_38_40
   + 95 x_38_41 + 48 x_38_42 + 39 x_38_43 + 17 x_38_44 + 46 x_38_45
   + 72 x_38_46 + 55 x_38_48 + 61 x_38_49 + 99 x_39_40 + 16 x_39_41
   + 56 x_39_45 + 65 x_39_48 + 92 x_40_41 + 39 x_40_42 + 42 x_40_43
   + 83 x_40_47 + 46 x_40_48 + 55 x_41_45 + 70 x_41_46 + 78 x_41_47
   + 53 x_41_48 + 58 x_41_49 + 40 x_42_43 + 45 x_42_44 + 43 x_42_45
   + 85 x_42_47 + 8 x_42_48 + 67 x_43_46 + 47 x_43_47 + 26 x_43_49
   + 57 x_44_45 + 65 x_44_46 + 90 x_44_47 + 53 x_44_48 + 70 x_45_46
   + 42 x_45_47 + 112 x_46_47 + 27 x_46_48 + 86 x_47_48 + 24 x_47_49
   + 62 x_48_49 + 1639 Constant
Subject To
 c_0: y_26 = 1
 c_1_0: y_0 >= 1
 c_1_1: y_1 >= 1
 c_1_2: y_2 + y_4 >= 1
 c_1_3: y_3 + y_13 + y_37 >= 1
 c_1_4: y_2 + y_4 >= 1
 c_1_5: y_5 >= 1
 c_1_6: y_6 + y_39 >= 1
 c_1_7: y_7 >= 1
 c_1_8: y_8 >= 1
 c_1_9: y_9 + y_45 >= 1
 c_1_10: y_10 >= 1
 c_1_11: y_11 + y_22 + y_38 >= 1
 c_1_12: y_12 + y_18 + y_47 >= 1
 c_1_13: y_3 + y_13 + y_37 >= 1
 c_1_14: y_14 >= 1
 c_1_15: y_15 >= 1
 c_1_16: y_16 >= 1
 c_1_17: y_17 >= 1
 c_1_18: y_12 + y_18 + y_29 >= 1
 c_1_19: y_19 >= 1
 c_1_20: y_20 + y_24 >= 1
 c_1_21: y_21 >= 1
 c_1_22: y_11 + y_22 + y_38 >= 1
 c_1_23: y_23 >= 1
 c_1_24: y_20 + y_24 >= 1
 c_1_25: y_25 + y_34 >= 1
 c_1_26: y_26 >= 1
 c_1_27: y_27 >= 1
 c_1_28: y_28 + y_43 >= 1
 c_1_29: y_18 + y_29 >= 1
 c_1_30: y_30 >= 1
 c_1_31: y_31 >= 1
 c_1_32: y_32 >= 1
 c_1_33: y_33 >= 1
 c_1_34: y_25 + y_34 >= 1
 c_1_35: y_35 >= 1
 c_1_36: y_36 >= 1
 c_1_37: y_3 + y_13 + y_37 >= 1
 c_1_38: y_11 + y_22 + y_38 >= 1
 c_1_39: y_6 + y_39 >= 1
 c_1_40: y_40 >= 1
 c_1_41: y_41 >= 1
 c_1_42: y_42 >= 1
 c_1_43: y_28 + y_43 >= 1
 c_1_44: y_44 >= 1
 c_1_45: y_9 + y_45 >= 1
 c_1_46: y_46 >= 1
 c_1_47: y_12 + y_47 >= 1
 c_1_48: y_48 >= 1
 c_1_49: y_49 >= 1
 c_2_0: - 2 y_0 + x_0_1 + x_0_3 + x_0_4 + x_0_6 + x_0_7 + x_0_10 + x_0_11
   + x_0_12 + x_0_13 + x_0_16 + x_0_17 + x_0_21 + x_0_22 + x_0_23 + x_0_24
   + x_0_25 + x_0_26 + x_0_27 + x_0_29 + x_0_30 + x_0_32 + x_0_34 + x_0_35
   + x_0_38 + x_0_40 + x_0_41 + x_0_42 + x_0_43 + x_0_44 + x_0_45 + x_0_47
   = 0
 c_2_1: - 2 y_1 + x_0_1 + x_1_2 + x_1_3 + x_1_4 + x_1_6 + x_1_7 + x_1_8
   + x_1_9 + x_1_10 + x_1_12 + x_1_13 + x_1_16 + x_1_19 + x_1_21 + x_1_22
   + x_1_23 + x_1_24 + x_1_26 + x_1_27 + x_1_30 + x_1_31 + x_1_32 + x_1_33
   + x_1_34 + x_1_35 + x_1_37 + x_1_38 + x_1_39 + x_1_41 + x_1_42 + x_1_45
   + x_1_46 + x_1_47 + x_1_48 + x_1_49 = 0
 c_2_2: - 2 y_2 + x_1_2 + x_2_3 + x_2_4 + x_2_6 + x_2_7 + x_2_8 + x_2_9
   + x_2_11 + x_2_12 + x_2_14 + x_2_15 + x_2_17 + x_2_18 + x_2_19 + x_2_21
   + x_2_22 + x_2_24 + x_2_25 + x_2_26 + x_2_27 + x_2_28 + x_2_29 + x_2_31
   + x_2_32 + x_2_33 + x_2_35 + x_2_36 + x_2_37 + x_2_39 + x_2_40 + x_2_41
   + x_2_42 + x_2_43 + x_2_44 + x_2_45 + x_2_46 + x_2_47 + x_2_48 = 0
 c_2_3: - 2 y_3 + x_0_3 + x_1_3 + x_2_3 + x_3_4 + x_3_5 + x_3_6 + x_3_8
   + x_3_10 + x_3_11 + x_3_12 + x_3_13 + x_3_14 + x_3_16 + x_3_20 + x_3_24
   + x_3_25 + x_3_29 + x_3_31 + x_3_32 + x_3_33 + x_3_35 + x_3_36 + x_3_37
   + x_3_39 + x_3_40 + x_3_41 + x_3_42 + x_3_43 + x_3_44 + x_3_47 = 0
 c_2_4: - 2 y_4 + x_0_4 + x_1_4 + x_2_4 + x_3_4 + x_4_5 + x_4_6 + x_4_7
   + x_4_9 + x_4_10 + x_4_11 + x_4_13 + x_4_14 + x_4_16 + x_4_17 + x_4_18
   + x_4_19 + x_4_21 + x_4_22 + x_4_23 + x_4_24 + x_4_25 + x_4_26 + x_4_27
   + x_4_28 + x_4_29 + x_4_32 + x_4_34 + x_4_35 + x_4_36 + x_4_37 + x_4_38
   + x_4_39 + x_4_40 + x_4_41 + x_4_43 + x_4_44 + x_4_45 + x_4_46 + x_4_47
   + x_4_48 = 0
 c_2_5: - 2 y_5 + x_3_5 + x_4_5 + x_5_7 + x_5_9 + x_5_10 + x_5_11 + x_5_16
   + x_5_17 + x_5_18 + x_5_19 + x_5_20 + x_5_21 + x_5_22 + x_5_23 + x_5_24
   + x_5_25 + x_5_27 + x_5_28 + x_5_30 + x_5_31 + x_5_32 + x_5_33 + x_5_34
   + x_5_36 + x_5_37 + x_5_38 + x_5_39 + x_5_41 + x_5_43 + x_5_44 + x_5_45
   + x_5_46 + x_5_47 = 0
 c_2_6: - 2 y_6 + x_0_6 + x_1_6 + x_2_6 + x_3_6 + x_4_6 + x_6_8 + x_6_10
   + x_6_11 + x_6_13 + x_6_14 + x_6_16 + x_6_18 + x_6_20 + x_6_22 + x_6_23
   + x_6_25 + x_6_26 + x_6_30 + x_6_31 + x_6_32 + x_6_34 + x_6_35 + x_6_38
   + x_6_39 + x_6_42 + x_6_43 + x_6_45 + x_6_46 + x_6_47 + x_6_48 + x_6_49
   = 0
 c_2_7: - 2 y_7 + x_0_7 + x_1_7 + x_2_7 + x_4_7 + x_5_7 + x_7_8 + x_7_9
   + x_7_10 + x_7_11 + x_7_12 + x_7_13 + x_7_14 + x_7_15 + x_7_16 + x_7_18
   + x_7_19 + x_7_21 + x_7_22 + x_7_23 + x_7_28 + x_7_29 + x_7_30 + x_7_32
   + x_7_33 + x_7_34 + x_7_35 + x_7_36 + x_7_38 + x_7_39 + x_7_40 + x_7_41
   + x_7_42 + x_7_43 + x_7_44 + x_7_46 + x_7_47 + x_7_48 + x_7_49 = 0
 c_2_8: - 2 y_8 + x_1_8 + x_2_8 + x_3_8 + x_6_8 + x_7_8 + x_8_10 + x_8_11
   + x_8_12 + x_8_14 + x_8_15 + x_8_16 + x_8_17 + x_8_18 + x_8_25 + x_8_26
   + x_8_27 + x_8_28 + x_8_29 + x_8_31 + x_8_32 + x_8_34 + x_8_35 + x_8_36
   + x_8_37 + x_8_38 + x_8_39 + x_8_40 + x_8_41 + x_8_43 + x_8_44 + x_8_45
   + x_8_46 + x_8_47 + x_8_49 = 0
 c_2_9: - 2 y_9 + x_1_9 + x_2_9 + x_4_9 + x_5_9 + x_7_9 + x_9_11 + x_9_12
   + x_9_13 + x_9_14 + x_9_16 + x_9_17 + x_9_18 + x_9_19 + x_9_20 + x_9_21
   + x_9_22 + x_9_23 + x_9_26 + x_9_28 + x_9_33 + x_9_34 + x_9_35 + x_9_36
   + x_9_38 + x_9_39 + x_9_40 + x_9_41 + x_9_42 + x_9_43 + x_9_45 + x_9_47
   + x_9_48 + x_9_49 = 0
 c_2_10: - 2 y_10 + x_0_10 + x_1_10 + x_3_10 + x_4_10 + x_5_10 + x_6_10
   + x_7_10 + x_8_10 + x_10_11 + x_10_12 + x_10_13 + x_10_15 + x_10_16
   + x_10_17 + x_10_18 + x_10_20 + x_10_21 + x_10_22 + x_10_27 + x_10_29
   + x_10_30 + x_10_32 + x_10_34 + x_10_35 + x_10_37 + x_10_39 + x_10_40
   + x_10_41 + x_10_42 + x_10_44 + x_10_45 + x_10_47 + x_10_48 + x_10_49
   = 0
 c_2_11: - 2 y_11 + x_0_11 + x_2_11 + x_3_11 + x_4_11 + x_5_11 + x_6_11
   + x_7_11 + x_8_11 + x_9_11 + x_10_11 + x_11_12 + x_11_13 + x_11_15
   + x_11_20 + x_11_22 + x_11_23 + x_11_24 + x_11_25 + x_11_26 + x_11_27
   + x_11_29 + x_11_30 + x_11_32 + x_11_34 + x_11_35 + x_11_36 + x_11_38
   + x_11_39 + x_11_40 + x_11_41 + x_11_42 + x_11_43 + x_11_46 + x_11_47
   + x_11_49 = 0
 c_2_12: - 2 y_12 + x_0_12 + x_1_12 + x_2_12 + x_3_12 + x_7_12 + x_8_12
   + x_9_12 + x_10_12 + x_11_12 + x_12_13 + x_12_14 + x_12_16 + x_12_17
   + x_12_18 + x_12_20 + x_12_21 + x_12_22 + x_12_23 + x_12_24 + x_12_25
   + x_12_26 + x_12_27 + x_12_28 + x_12_29 + x_12_30 + x_12_31 + x_12_32
   + x_12_33 + x_12_34 + x_12_35 + x_12_36 + x_12_37 + x_12_39 + x_12_40
   + x_12_42 + x_12_43 + x_12_44 + x_12_46 + x_12_48 + x_12_49 = 0
 c_2_13: - 2 y_13 + x_0_13 + x_1_13 + x_3_13 + x_4_13 + x_6_13 + x_7_13
   + x_9_13 + x_10_13 + x_11_13 + x_12_13 + x_13_15 + x_13_18 + x_13_19
   + x_13_21 + x_13_22 + x_13_24 + x_13_28 + x_13_29 + x_13_31 + x_13_34
   + x_13_35 + x_13_36 + x_13_37 + x_13_38 + x_13_40 + x_13_41 + x_13_43
   + x_13_45 + x_13_46 + x_13_47 + x_13_49 = 0
 c_2_14: - 2 y_14 + x_2_14 + x_3_14 + x_4_14 + x_6_14 + x_7_14 + x_8_14
   + x_9_14 + x_12_14 + x_14_15 + x_14_16 + x_14_17 + x_14_18 + x_14_19
   + x_14_20 + x_14_21 + x_14_22 + x_14_23 + x_14_24 + x_14_25 + x_14_26
   + x_14_27 + x_14_28 + x_14_29 + x_14_30 + x_14_31 + x_14_32 + x_14_33
   + x_14_34 + x_14_37 + x_14_38 + x_14_41 + x_14_42 + x_14_43 + x_14_44
   + x_14_45 + x_14_46 + x_14_47 + x_14_48 + x_14_49 = 0
 c_2_15: - 2 y_15 + x_2_15 + x_7_15 + x_8_15 + x_10_15 + x_11_15 + x_13_15
   + x_14_15 + x_15_16 + x_15_17 + x_15_19 + x_15_21 + x_15_22 + x_15_23
   + x_15_25 + x_15_26 + x_15_27 + x_15_28 + x_15_29 + x_15_30 + x_15_31
   + x_15_32 + x_15_33 + x_15_34 + x_15_36 + x_15_37 + x_15_38 + x_15_40
   + x_15_42 + x_15_44 + x_15_45 + x_15_46 + x_15_47 + x_15_48 + x_15_49
   = 0
 c_2_16: - 2 y_16 + x_0_16 + x_1_16 + x_3_16 + x_4_16 + x_5_16 + x_6_16
   + x_7_16 + x_8_16 + x_9_16 + x_10_16 + x_12_16 + x_14_16 + x_15_16
   + x_16_19 + x_16_20 + x_16_21 + x_16_22 + x_16_24 + x_16_25 + x_16_30
   + x_16_33 + x_16_34 + x_16_35 + x_16_37 + x_16_38 + x_16_42 + x_16_43
   + x_16_45 + x_16_46 + x_16_47 + x_16_48 + x_16_49 = 0
 c_2_17: - 2 y_17 + x_0_17 + x_2_17 + x_4_17 + x_5_17 + x_8_17 + x_9_17
   + x_10_17 + x_12_17 + x_14_17 + x_15_17 + x_17_18 + x_17_19 + x_17_20
   + x_17_21 + x_17_22 + x_17_27 + x_17_28 + x_17_29 + x_17_30 + x_17_31
   + x_17_32 + x_17_34 + x_17_35 + x_17_36 + x_17_38 + x_17_39 + x_17_41
   + x_17_43 + x_17_44 + x_17_45 + x_17_46 + x_17_48 + x_17_49 = 0
 c_2_18: - 2 y_18 + x_2_18 + x_4_18 + x_5_18 + x_6_18 + x_7_18 + x_8_18
   + x_9_18 + x_10_18 + x_12_18 + x_13_18 + x_14_18 + x_17_18 + x_18_19
   + x_18_22 + x_18_23 + x_18_26 + x_18_28 + x_18_29 + x_18_32 + x_18_33
   + x_18_35 + x_18_36 + x_18_37 + x_18_38 + x_18_39 + x_18_40 + x_18_41
   + x_18_43 + x_18_45 + x_18_46 + x_18_47 + x_18_48 = 0
 c_2_19: - 2 y_19 + x_1_19 + x_2_19 + x_4_19 + x_5_19 + x_7_19 + x_9_19
   + x_13_19 + x_14_19 + x_15_19 + x_16_19 + x_17_19 + x_18_19 + x_19_23
   + x_19_24 + x_19_26 + x_19_27 + x_19_28 + x_19_29 + x_19_30 + x_19_31
   + x_19_32 + x_19_33 + x_19_35 + x_19_36 + x_19_37 + x_19_38 + x_19_39
   + x_19_40 + x_19_41 + x_19_42 + x_19_43 + x_19_44 + x_19_45 + x_19_46
   + x_19_48 = 0
 c_2_20: - 2 y_20 + x_3_20 + x_5_20 + x_6_20 + x_9_20 + x_10_20 + x_11_20
   + x_12_20 + x_14_20 + x_16_20 + x_17_20 + x_20_21 + x_20_22 + x_20_23
   + x_20_24 + x_20_26 + x_20_27 + x_20_28 + x_20_29 + x_20_30 + x_20_31
   + x_20_32 + x_20_33 + x_20_34 + x_20_35 + x_20_36 + x_20_37 + x_20_38
   + x_20_40 + x_20_41 + x_20_42 + x_20_43 + x_20_47 + x_20_48 + x_20_49
   = 0
 c_2_21: - 2 y_21 + x_0_21 + x_1_21 + x_2_21 + x_4_21 + x_5_21 + x_7_21
   + x_9_21 + x_10_21 + x_12_21 + x_13_21 + x_14_21 + x_15_21 + x_16_21
   + x_17_21 + x_20_21 + x_21_25 + x_21_29 + x_21_32 + x_21_34 + x_21_37
   + x_21_38 + x_21_39 + x_21_41 + x_21_43 + x_21_44 + x_21_45 + x_21_46
   + x_21_48 = 0
 c_2_22: - 2 y_22 + x_0_22 + x_1_22 + x_2_22 + x_4_22 + x_5_22 + x_6_22
   + x_7_22 + x_9_22 + x_10_22 + x_11_22 + x_12_22 + x_13_22 + x_14_22
   + x_15_22 + x_16_22 + x_17_22 + x_18_22 + x_20_22 + x_22_24 + x_22_25
   + x_22_27 + x_22_28 + x_22_29 + x_22_30 + x_22_31 + x_22_32 + x_22_33
   + x_22_34 + x_22_36 + x_22_37 + x_22_38 + x_22_39 + x_22_41 + x_22_43
   + x_22_44 + x_22_45 + x_22_48 + x_22_49 = 0
 c_2_23: - 2 y_23 + x_0_23 + x_1_23 + x_4_23 + x_5_23 + x_6_23 + x_7_23
   + x_9_23 + x_11_23 + x_12_23 + x_14_23 + x_15_23 + x_18_23 + x_19_23
   + x_20_23 + x_23_24 + x_23_25 + x_23_26 + x_23_27 + x_23_28 + x_23_29
   + x_23_30 + x_23_32 + x_23_33 + x_23_35 + x_23_36 + x_23_37 + x_23_38
   + x_23_39 + x_23_40 + x_23_41 + x_23_43 + x_23_44 + x_23_45 + x_23_46
   + x_23_47 + x_23_48 + x_23_49 = 0
 c_2_24: - 2 y_24 + x_0_24 + x_1_24 + x_2_24 + x_3_24 + x_4_24 + x_5_24
   + x_11_24 + x_12_24 + x_13_24 + x_14_24 + x_16_24 + x_19_24 + x_20_24
   + x_22_24 + x_23_24 + x_24_26 + x_24_27 + x_24_28 + x_24_29 + x_24_30
   + x_24_31 + x_24_33 + x_24_34 + x_24_38 + x_24_40 + x_24_41 + x_24_42
   + x_24_43 + x_24_44 + x_24_47 + x_24_48 + x_24_49 = 0
 c_2_25: - 2 y_25 + x_0_25 + x_2_25 + x_3_25 + x_4_25 + x_5_25 + x_6_25
   + x_8_25 + x_11_25 + x_12_25 + x_14_25 + x_15_25 + x_16_25 + x_21_25
   + x_22_25 + x_23_25 + x_25_26 + x_25_28 + x_25_29 + x_25_30 + x_25_31
   + x_25_33 + x_25_34 + x_25_35 + x_25_36 + x_25_39 + x_25_40 + x_25_42
   + x_25_43 + x_25_44 + x_25_45 + x_25_46 + x_25_48 = 0
 c_2_26: - 2 y_26 + x_0_26 + x_1_26 + x_2_26 + x_4_26 + x_6_26 + x_8_26
   + x_9_26 + x_11_26 + x_12_26 + x_14_26 + x_15_26 + x_18_26 + x_19_26
   + x_20_26 + x_23_26 + x_24_26 + x_25_26 + x_26_27 + x_26_28 + x_26_29
   + x_26_30 + x_26_31 + x_26_32 + x_26_33 + x_26_34 + x_26_35 + x_26_36
   + x_26_37 + x_26_38 + x_26_39 + x_26_40 + x_26_41 + x_26_42 + x_26_43
   + x_26_44 + x_26_45 + x_26_47 + x_26_48 + x_26_49 = 0
 c_2_27: - 2 y_27 + x_0_27 + x_1_27 + x_2_27 + x_4_27 + x_5_27 + x_8_27
   + x_10_27 + x_11_27 + x_12_27 + x_14_27 + x_15_27 + x_17_27 + x_19_27
   + x_20_27 + x_22_27 + x_23_27 + x_24_27 + x_26_27 + x_27_28 + x_27_29
   + x_27_30 + x_27_33 + x_27_34 + x_27_36 + x_27_37 + x_27_38 + x_27_39
   + x_27_40 + x_27_42 + x_27_43 + x_27_44 + x_27_46 + x_27_47 + x_27_48
   = 0
 c_2_28: - 2 y_28 + x_2_28 + x_4_28 + x_5_28 + x_7_28 + x_8_28 + x_9_28
   + x_12_28 + x_13_28 + x_14_28 + x_15_28 + x_17_28 + x_18_28 + x_19_28
   + x_20_28 + x_22_28 + x_23_28 + x_24_28 + x_25_28 + x_26_28 + x_27_28
   + x_28_29 + x_28_30 + x_28_32 + x_28_33 + x_28_35 + x_28_36 + x_28_37
   + x_28_38 + x_28_39 + x_28_40 + x_28_41 + x_28_42 + x_28_43 + x_28_45
   + x_28_46 + x_28_47 + x_28_48 + x_28_49 = 0
 c_2_29: - 2 y_29 + x_0_29 + x_2_29 + x_3_29 + x_4_29 + x_7_29 + x_8_29
   + x_10_29 + x_11_29 + x_12_29 + x_13_29 + x_14_29 + x_15_29 + x_17_29
   + x_18_29 + x_19_29 + x_20_29 + x_21_29 + x_22_29 + x_23_29 + x_24_29
   + x_25_29 + x_26_29 + x_27_29 + x_28_29 + x_29_30 + x_29_31 + x_29_32
   + x_29_33 + x_29_35 + x_29_37 + x_29_41 + x_29_42 + x_29_43 + x_29_44
   + x_29_46 + x_29_47 = 0
 c_2_30: - 2 y_30 + x_0_30 + x_1_30 + x_5_30 + x_6_30 + x_7_30 + x_10_30
   + x_11_30 + x_12_30 + x_14_30 + x_15_30 + x_16_30 + x_17_30 + x_19_30
   + x_20_30 + x_22_30 + x_23_30 + x_24_30 + x_25_30 + x_26_30 + x_27_30
   + x_28_30 + x_29_30 + x_30_32 + x_30_34 + x_30_35 + x_30_37 + x_30_38
   + x_30_40 + x_30_42 + x_30_43 + x_30_45 + x_30_46 + x_30_48 + x_30_49
   = 0
 c_2_31: - 2 y_31 + x_1_31 + x_2_31 + x_3_31 + x_5_31 + x_6_31 + x_8_31
   + x_12_31 + x_13_31 + x_14_31 + x_15_31 + x_17_31 + x_19_31 + x_20_31
   + x_22_31 + x_24_31 + x_25_31 + x_26_31 + x_29_31 + x_31_32 + x_31_35
   + x_31_36 + x_31_38 + x_31_41 + x_31_42 + x_31_45 + x_31_46 + x_31_47
   + x_31_49 = 0
 c_2_32: - 2 y_32 + x_0_32 + x_1_32 + x_2_32 + x_3_32 + x_4_32 + x_5_32
   + x_6_32 + x_7_32 + x_8_32 + x_10_32 + x_11_32 + x_12_32 + x_14_32
   + x_15_32 + x_17_32 + x_18_32 + x_19_32 + x_20_32 + x_21_32 + x_22_32
   + x_23_32 + x_26_32 + x_28_32 + x_29_32 + x_30_32 + x_31_32 + x_32_33
   + x_32_34 + x_32_37 + x_32_39 + x_32_43 + x_32_44 + x_32_47 + x_32_48
   + x_32_49 = 0
 c_2_33: - 2 y_33 + x_1_33 + x_2_33 + x_3_33 + x_5_33 + x_7_33 + x_9_33
   + x_12_33 + x_14_33 + x_15_33 + x_16_33 + x_18_33 + x_19_33 + x_20_33
   + x_22_33 + x_23_33 + x_24_33 + x_25_33 + x_26_33 + x_27_33 + x_28_33
   + x_29_33 + x_32_33 + x_33_35 + x_33_38 + x_33_39 + x_33_40 + x_33_41
   + x_33_43 + x_33_44 + x_33_45 + x_33_46 + x_33_47 + x_33_48 + x_33_49
   = 0
 c_2_34: - 2 y_34 + x_0_34 + x_1_34 + x_4_34 + x_5_34 + x_6_34 + x_7_34
   + x_8_34 + x_9_34 + x_10_34 + x_11_34 + x_12_34 + x_13_34 + x_14_34
   + x_15_34 + x_16_34 + x_17_34 + x_20_34 + x_21_34 + x_22_34 + x_24_34
   + x_25_34 + x_26_34 + x_27_34 + x_30_34 + x_32_34 + x_34_36 + x_34_37
   + x_34_38 + x_34_39 + x_34_41 + x_34_43 + x_34_44 + x_34_45 + x_34_47
   + x_34_48 + x_34_49 = 0
 c_2_35: - 2 y_35 + x_0_35 + x_1_35 + x_2_35 + x_3_35 + x_4_35 + x_6_35
   + x_7_35 + x_8_35 + x_9_35 + x_10_35 + x_11_35 + x_12_35 + x_13_35
   + x_16_35 + x_17_35 + x_18_35 + x_19_35 + x_20_35 + x_23_35 + x_25_35
   + x_26_35 + x_28_35 + x_29_35 + x_30_35 + x_31_35 + x_33_35 + x_35_36
   + x_35_37 + x_35_38 + x_35_41 + x_35_43 + x_35_45 + x_35_46 + x_35_49
   = 0
 c_2_36: - 2 y_36 + x_2_36 + x_3_36 + x_4_36 + x_5_36 + x_7_36 + x_8_36
   + x_9_36 + x_11_36 + x_12_36 + x_13_36 + x_15_36 + x_17_36 + x_18_36
   + x_19_36 + x_20_36 + x_22_36 + x_23_36 + x_25_36 + x_26_36 + x_27_36
   + x_28_36 + x_31_36 + x_34_36 + x_35_36 + x_36_37 + x_36_38 + x_36_39
   + x_36_40 + x_36_42 + x_36_43 + x_36_46 + x_36_49 = 0
 c_2_37: - 2 y_37 + x_1_37 + x_2_37 + x_3_37 + x_4_37 + x_5_37 + x_8_37
   + x_10_37 + x_12_37 + x_13_37 + x_14_37 + x_15_37 + x_16_37 + x_18_37
   + x_19_37 + x_20_37 + x_21_37 + x_22_37 + x_23_37 + x_26_37 + x_27_37
   + x_28_37 + x_29_37 + x_30_37 + x_32_37 + x_34_37 + x_35_37 + x_36_37
   + x_37_40 + x_37_42 + x_37_43 + x_37_46 + x_37_47 = 0
 c_2_38: - 2 y_38 + x_0_38 + x_1_38 + x_4_38 + x_5_38 + x_6_38 + x_7_38
   + x_8_38 + x_9_38 + x_11_38 + x_13_38 + x_14_38 + x_15_38 + x_16_38
   + x_17_38 + x_18_38 + x_19_38 + x_20_38 + x_21_38 + x_22_38 + x_23_38
   + x_24_38 + x_26_38 + x_27_38 + x_28_38 + x_30_38 + x_31_38 + x_33_38
   + x_34_38 + x_35_38 + x_36_38 + x_38_39 + x_38_40 + x_38_41 + x_38_42
   + x_38_43 + x_38_44 + x_38_45 + x_38_46 + x_38_48 + x_38_49 = 0
 c_2_39: - 2 y_39 + x_1_39 + x_2_39 + x_3_39 + x_4_39 + x_5_39 + x_6_39
   + x_7_39 + x_8_39 + x_9_39 + x_10_39 + x_11_39 + x_12_39 + x_17_39
   + x_18_39 + x_19_39 + x_21_39 + x_22_39 + x_23_39 + x_25_39 + x_26_39
   + x_27_39 + x_28_39 + x_32_39 + x_33_39 + x_34_39 + x_36_39 + x_38_39
   + x_39_40 + x_39_41 + x_39_45 + x_39_48 = 0
 c_2_40: - 2 y_40 + x_0_40 + x_2_40 + x_3_40 + x_4_40 + x_7_40 + x_8_40
   + x_9_40 + x_10_40 + x_11_40 + x_12_40 + x_13_40 + x_15_40 + x_18_40
   + x_19_40 + x_20_40 + x_23_40 + x_24_40 + x_25_40 + x_26_40 + x_27_40
   + x_28_40 + x_30_40 + x_33_40 + x_36_40 + x_37_40 + x_38_40 + x_39_40
   + x_40_41 + x_40_42 + x_40_43 + x_40_47 + x_40_48 = 0
 c_2_41: - 2 y_41 + x_0_41 + x_1_41 + x_2_41 + x_3_41 + x_4_41 + x_5_41
   + x_7_41 + x_8_41 + x_9_41 + x_10_41 + x_11_41 + x_13_41 + x_14_41
   + x_17_41 + x_18_41 + x_19_41 + x_20_41 + x_21_41 + x_22_41 + x_23_41
   + x_24_41 + x_26_41 + x_28_41 + x_29_41 + x_31_41 + x_33_41 + x_34_41
   + x_35_41 + x_38_41 + x_39_41 + x_40_41 + x_41_45 + x_41_46 + x_41_47
   + x_41_48 + x_41_49 = 0
 c_2_42: - 2 y_42 + x_0_42 + x_1_42 + x_2_42 + x_3_42 + x_6_42 + x_7_42
   + x_9_42 + x_10_42 + x_11_42 + x_12_42 + x_14_42 + x_15_42 + x_16_42
   + x_19_42 + x_20_42 + x_24_42 + x_25_42 + x_26_42 + x_27_42 + x_28_42
   + x_29_42 + x_30_42 + x_31_42 + x_36_42 + x_37_42 + x_38_42 + x_40_42
   + x_42_43 + x_42_44 + x_42_45 + x_42_47 + x_42_48 = 0
 c_2_43: - 2 y_43 + x_0_43 + x_2_43 + x_3_43 + x_4_43 + x_5_43 + x_6_43
   + x_7_43 + x_8_43 + x_9_43 + x_11_43 + x_12_43 + x_13_43 + x_14_43
   + x_16_43 + x_17_43 + x_18_43 + x_19_43 + x_20_43 + x_21_43 + x_22_43
   + x_23_43 + x_24_43 + x_25_43 + x_26_43 + x_27_43 + x_28_43 + x_29_43
   + x_30_43 + x_32_43 + x_33_43 + x_34_43 + x_35_43 + x_36_43 + x_37_43
   + x_38_43 + x_40_43 + x_42_43 + x_43_46 + x_43_47 + x_43_49 = 0
 c_2_44: - 2 y_44 + x_0_44 + x_2_44 + x_3_44 + x_4_44 + x_5_44 + x_7_44
   + x_8_44 + x_10_44 + x_12_44 + x_14_44 + x_15_44 + x_17_44 + x_19_44
   + x_21_44 + x_22_44 + x_23_44 + x_24_44 + x_25_44 + x_26_44 + x_27_44
   + x_29_44 + x_32_44 + x_33_44 + x_34_44 + x_38_44 + x_42_44 + x_44_45
   + x_44_46 + x_44_47 + x_44_48 = 0
 c_2_45: - 2 y_45 + x_0_45 + x_1_45 + x_2_45 + x_4_45 + x_5_45 + x_6_45
   + x_8_45 + x_9_45 + x_10_45 + x_13_45 + x_14_45 + x_15_45 + x_16_45
   + x_17_45 + x_18_45 + x_19_45 + x_21_45 + x_22_45 + x_23_45 + x_25_45
   + x_26_45 + x_28_45 + x_30_45 + x_31_45 + x_33_45 + x_34_45 + x_35_45
   + x_38_45 + x_39_45 + x_41_45 + x_42_45 + x_44_45 + x_45_46 + x_45_47
   = 0
 c_2_46: - 2 y_46 + x_1_46 + x_2_46 + x_4_46 + x_5_46 + x_6_46 + x_7_46
   + x_8_46 + x_11_46 + x_12_46 + x_13_46 + x_14_46 + x_15_46 + x_16_46
   + x_17_46 + x_18_46 + x_19_46 + x_21_46 + x_23_46 + x_25_46 + x_27_46
   + x_28_46 + x_29_46 + x_30_46 + x_31_46 + x_33_46 + x_35_46 + x_36_46
   + x_37_46 + x_38_46 + x_41_46 + x_43_46 + x_44_46 + x_45_46 + x_46_47
   + x_46_48 = 0
 c_2_47: - 2 y_47 + x_0_47 + x_1_47 + x_2_47 + x_3_47 + x_4_47 + x_5_47
   + x_6_47 + x_7_47 + x_8_47 + x_9_47 + x_10_47 + x_11_47 + x_13_47
   + x_14_47 + x_15_47 + x_16_47 + x_18_47 + x_20_47 + x_23_47 + x_24_47
   + x_26_47 + x_27_47 + x_28_47 + x_29_47 + x_31_47 + x_32_47 + x_33_47
   + x_34_47 + x_37_47 + x_40_47 + x_41_47 + x_42_47 + x_43_47 + x_44_47
   + x_45_47 + x_46_47 + x_47_48 + x_47_49 = 0
 c_2_48: - 2 y_48 + x_1_48 + x_2_48 + x_4_48 + x_6_48 + x_7_48 + x_9_48
   + x_10_48 + x_12_48 + x_14_48 + x_15_48 + x_16_48 + x_17_48 + x_18_48
   + x_19_48 + x_20_48 + x_21_48 + x_22_48 + x_23_48 + x_24_48 + x_25_48
   + x_26_48 + x_27_48 + x_28_48 + x_30_48 + x_32_48 + x_33_48 + x_34_48
   + x_38_48 + x_39_48 + x_40_48 + x_41_48 + x_42_48 + x_44_48 + x_46_48
   + x_47_48 + x_48_49 = 0
 c_2_49: - 2 y_49 + x_1_49 + x_6_49 + x_7_49 + x_8_49 + x_9_49 + x_10_49
   + x_11_49 + x_12_49 + x_13_49 + x_14_49 + x_15_49 + x_16_49 + x_17_49
   + x_20_49 + x_22_49 + x_23_49 + x_24_49 + x_26_49 + x_28_49 + x_30_49
   + x_31_49 + x_32_49 + x_33_49 + x_34_49 + x_35_49 + x_36_49 + x_38_49
   + x_41_49 + x_43_49 + x_47_49 + x_48_49 = 0
Bounds
 Constant = 1
Binaries
 y_0 y_1 y_2 y_3 y_4 y_5 y_6 y_7 y_8 y_9 y_10 y_11 y_12 y_13 y_14 y_15 y_16
 y_17 y_18 y_19 y_20 y_21 y_22 y_23 y_24 y_25 y_26 y_27 y_28 y_29 y_30 y_31
 y_32 y_33 y_34 y_35 y_36 y_37 y_38 y_39 y_40 y_41 y_42 y_43 y_44 y_45 y_46
 y_47 y_48 y_49 x_0_1 x_0_3 x_0_4 x_0_6 x_0_7 x_0_10 x_0_11 x_0_12 x_0_13
 x_0_16 x_0_17 x_0_21 x_0_22 x_0_23 x_0_24 x_0_25 x_0_26 x_0_27 x_0_29
 x_0_30 x_0_32 x_0_34 x_0_35 x_0_38 x_0_40 x_0_41 x_0_42 x_0_43 x_0_44
 x_0_45 x_0_47 x_1_2 x_1_3 x_1_4 x_1_6 x_1_7 x_1_8 x_1_9 x_1_10 x_1_12
 x_1_13 x_1_16 x_1_19 x_1_21 x_1_22 x_1_23 x_1_24 x_1_26 x_1_27 x_1_30
 x_1_31 x_1_32 x_1_33 x_1_34 x_1_35 x_1_37 x_1_38 x_1_39 x_1_41 x_1_42
 x_1_45 x_1_46 x_1_47 x_1_48 x_1_49 x_2_3 x_2_4 x_2_6 x_2_7 x_2_8 x_2_9
 x_2_11 x_2_12 x_2_14 x_2_15 x_2_17 x_2_18 x_2_19 x_2_21 x_2_22 x_2_24
 x_2_25 x_2_26 x_2_27 x_2_28 x_2_29 x_2_31 x_2_32 x_2_33 x_2_35 x_2_36
 x_2_37 x_2_39 x_2_40 x_2_41 x_2_42 x_2_43 x_2_44 x_2_45 x_2_46 x_2_47
 x_2_48 x_3_4 x_3_5 x_3_6 x_3_8 x_3_10 x_3_11 x_3_12 x_3_13 x_3_14 x_3_16
 x_3_20 x_3_24 x_3_25 x_3_29 x_3_31 x_3_32 x_3_33 x_3_35 x_3_36 x_3_37
 x_3_39 x_3_40 x_3_41 x_3_42 x_3_43 x_3_44 x_3_47 x_4_5 x_4_6 x_4_7 x_4_9
 x_4_10 x_4_11 x_4_13 x_4_14 x_4_16 x_4_17 x_4_18 x_4_19 x_4_21 x_4_22
 x_4_23 x_4_24 x_4_25 x_4_26 x_4_27 x_4_28 x_4_29 x_4_32 x_4_34 x_4_35
 x_4_36 x_4_37 x_4_38 x_4_39 x_4_40 x_4_41 x_4_43 x_4_44 x_4_45 x_4_46
 x_4_47 x_4_48 x_5_7 x_5_9 x_5_10 x_5_11 x_5_16 x_5_17 x_5_18 x_5_19 x_5_20
 x_5_21 x_5_22 x_5_23 x_5_24 x_5_25 x_5_27 x_5_28 x_5_30 x_5_31 x_5_32
 x_5_33 x_5_34 x_5_36 x_5_37 x_5_38 x_5_39 x_5_41 x_5_43 x_5_44 x_5_45
 x_5_46 x_5_47 x_6_8 x_6_10 x_6_11 x_6_13 x_6_14 x_6_16 x_6_18 x_6_20
 x_6_22 x_6_23 x_6_25 x_6_26 x_6_30 x_6_31 x_6_32 x_6_34 x_6_35 x_6_38
 x_6_39 x_6_42 x_6_43 x_6_45 x_6_46 x_6_47 x_6_48 x_6_49 x_7_8 x_7_9 x_7_10
 x_7_11 x_7_12 x_7_13 x_7_14 x_7_15 x_7_16 x_7_18 x_7_19 x_7_21 x_7_22
 x_7_23 x_7_28 x_7_29 x_7_30 x_7_32 x_7_33 x_7_34 x_7_35 x_7_36 x_7_38
 x_7_39 x_7_40 x_7_41 x_7_42 x_7_43 x_7_44 x_7_46 x_7_47 x_7_48 x_7_49
 x_8_10 x_8_11 x_8_12 x_8_14 x_8_15 x_8_16 x_8_17 x_8_18 x_8_25 x_8_26
 x_8_27 x_8_28 x_8_29 x_8_31 x_8_32 x_8_34 x_8_35 x_8_36 x_8_37 x_8_38
 x_8_39 x_8_40 x_8_41 x_8_43 x_8_44 x_8_45 x_8_46 x_8_47 x_8_49 x_9_11
 x_9_12 x_9_13 x_9_14 x_9_16 x_9_17 x_9_18 x_9_19 x_9_20 x_9_21 x_9_22
 x_9_23 x_9_26 x_9_28 x_9_33 x_9_34 x_9_35 x_9_36 x_9_38 x_9_39 x_9_40
 x_9_41 x_9_42 x_9_43 x_9_45 x_9_47 x_9_48 x_9_49 x_10_11 x_10_12 x_10_13
 x_10_15 x_10_16 x_10_17 x_10_18 x_10_20 x_10_21 x_10_22 x_10_27 x_10_29
 x_10_30 x_10_32 x_10_34 x_10_35 x_10_37 x_10_39 x_10_40 x_10_41 x_10_42
 x_10_44 x_10_45 x_10_47 x_10_48 x_10_49 x_11_12 x_11_13 x_11_15 x_11_20
 x_11_22 x_11_23 x_11_24 x_11_25 x_11_26 x_11_27 x_11_29 x_11_30 x_11_32
 x_11_34 x_11_35 x_11_36 x_11_38 x_11_39 x_11_40 x_11_41 x_11_42 x_11_43
 x_11_46 x_11_47 x_11_49 x_12_13 x_12_14 x_12_16 x_12_17 x_12_18 x_12_20
 x_12_21 x_12_22 x_12_23 x_12_24 x_12_25 x_12_26 x_12_27 x_12_28 x_12_29
 x_12_30 x_12_31 x_12_32 x_12_33 x_12_34 x_12_35 x_12_36 x_12_37 x_12_39
 x_12_40 x_12_42 x_12_43 x_12_44 x_12_46 x_12_48 x_12_49 x_13_15 x_13_18
 x_13_19 x_13_21 x_13_22 x_13_24 x_13_28 x_13_29 x_13_31 x_13_34 x_13_35
 x_13_36 x_13_37 x_13_38 x_13_40 x_13_41 x_13_43 x_13_45 x_13_46 x_13_47
 x_13_49 x_14_15 x_14_16 x_14_17 x_14_18 x_14_19 x_14_20 x_14_21 x_14_22
 x_14_23 x_14_24 x_14_25 x_14_26 x_14_27 x_14_28 x_14_29 x_14_30 x_14_31
 x_14_32 x_14_33 x_14_34 x_14_37 x_14_38 x_14_41 x_14_42 x_14_43 x_14_44
 x_14_45 x_14_46 x_14_47 x_14_48 x_14_49 x_15_16 x_15_17 x_15_19 x_15_21
 x_15_22 x_15_23 x_15_25 x_15_26 x_15_27 x_15_28 x_15_29 x_15_30 x_15_31
 x_15_32 x_15_33 x_15_34 x_15_36 x_15_37 x_15_38 x_15_40 x_15_42 x_15_44
 x_15_45 x_15_46 x_15_47 x_15_48 x_15_49 x_16_19 x_16_20 x_16_21 x_16_22
 x_16_24 x_16_25 x_16_30 x_16_33 x_16_34 x_16_35 x_16_37 x_16_38 x_16_42
 x_16_43 x_16_45 x_16_46 x_16_47 x_16_48 x_16_49 x_17_18 x_17_19 x_17_20
 x_17_21 x_17_22 x_17_27 x_17_28 x_17_29 x_17_30 x_17_31 x_17_32 x_17_34
 x_17_35 x_17_36 x_17_38 x_17_39 x_17_41 x_17_43 x_17_44 x_17_45 x_17_46
 x_17_48 x_17_49 x_18_19 x_18_22 x_18_23 x_18_26 x_18_28 x_18_29 x_18_32
 x_18_33 x_18_35 x_18_36 x_18_37 x_18_38 x_18_39 x_18_40 x_18_41 x_18_43
 x_18_45 x_18_46 x_18_47 x_18_48 x_19_23 x_19_24 x_19_26 x_19_27 x_19_28
 x_19_29 x_19_30 x_19_31 x_19_32 x_19_33 x_19_35 x_19_36 x_19_37 x_19_38
 x_19_39 x_19_40 x_19_41 x_19_42 x_19_43 x_19_44 x_19_45 x_19_46 x_19_48
 x_20_21 x_20_22 x_20_23 x_20_24 x_20_26 x_20_27 x_20_28 x_20_29 x_20_30
 x_20_31 x_20_32 x_20_33 x_20_34 x_20_35 x_20_36 x_20_37 x_20_38 x_20_40
 x_20_41 x_20_42 x_20_43 x_20_47 x_20_48 x_20_49 x_21_25 x_21_29 x_21_32
 x_21_34 x_21_37 x_21_38 x_21_39 x_21_41 x_21_43 x_21_44 x_21_45 x_21_46
 x_21_48 x_22_24 x_22_25 x_22_27 x_22_28 x_22_29 x_22_30 x_22_31 x_22_32
 x_22_33 x_22_34 x_22_36 x_22_37 x_22_38 x_22_39 x_22_41 x_22_43 x_22_44
 x_22_45 x_22_48 x_22_49 x_23_24 x_23_25 x_23_26 x_23_27 x_23_28 x_23_29
 x_23_30 x_23_32 x_23_33 x_23_35 x_23_36 x_23_37 x_23_38 x_23_39 x_23_40
 x_23_41 x_23_43 x_23_44 x_23_45 x_23_46 x_23_47 x_23_48 x_23_49 x_24_26
 x_24_27 x_24_28 x_24_29 x_24_30 x_24_31 x_24_33 x_24_34 x_24_38 x_24_40
 x_24_41 x_24_42 x_24_43 x_24_44 x_24_47 x_24_48 x_24_49 x_25_26 x_25_28
 x_25_29 x_25_30 x_25_31 x_25_33 x_25_34 x_25_35 x_25_36 x_25_39 x_25_40
 x_25_42 x_25_43 x_25_44 x_25_45 x_25_46 x_25_48 x_26_27 x_26_28 x_26_29
 x_26_30 x_26_31 x_26_32 x_26_33 x_26_34 x_26_35 x_26_36 x_26_37 x_26_38
 x_26_39 x_26_40 x_26_41 x_26_42 x_26_43 x_26_44 x_26_45 x_26_47 x_26_48
 x_26_49 x_27_28 x_27_29 x_27_30 x_27_33 x_27_34 x_27_36 x_27_37 x_27_38
 x_27_39 x_27_40 x_27_42 x_27_43 x_27_44 x_27_46 x_27_47 x_27_48 x_28_29
 x_28_30 x_28_32 x_28_33 x_28_35 x_28_36 x_28_37 x_28_38 x_28_39 x_28_40
 x_28_41 x_28_42 x_28_43 x_28_45 x_28_46 x_28_47 x_28_48 x_28_49 x_29_30
 x_29_31 x_29_32 x_29_33 x_29_35 x_29_37 x_29_41 x_29_42 x_29_43 x_29_44
 x_29_46 x_29_47 x_30_32 x_30_34 x_30_35 x_30_37 x_30_38 x_30_40 x_30_42
 x_30_43 x_30_45 x_30_46 x_30_48 x_30_49 x_31_32 x_31_35 x_31_36 x_31_38
 x_31_41 x_31_42 x_31_45 x_31_46 x_31_47 x_31_49 x_32_33 x_32_34 x_32_37
 x_32_39 x_32_43 x_32_44 x_32_47 x_32_48 x_32_49 x_33_35 x_33_38 x_33_39
 x_33_40 x_33_41 x_33_43 x_33_44 x_33_45 x_33_46 x_33_47 x_33_48 x_33_49
 x_34_36 x_34_37 x_34_38 x_34_39 x_34_41 x_34_43 x_34_44 x_34_45 x_34_47
 x_34_48 x_34_49 x_35_36 x_35_37 x_35_38 x_35_41 x_35_43 x_35_45 x_35_46
 x_35_49 x_36_37 x_36_38 x_36_39 x_36_40 x_36_42 x_36_43 x_36_46 x_36_49
 x_37_40 x_37_42 x_37_43 x_37_46 x_37_47 x_38_39 x_38_40 x_38_41 x_38_42
 x_38_43 x_38_44 x_38_45 x_38_46 x_38_48 x_38_49 x_39_40 x_39_41 x_39_45
 x_39_48 x_40_41 x_40_42 x_40_43 x_40_47 x_40_48 x_41_45 x_41_46 x_41_47
 x_41_48 x_41_49 x_42_43 x_42_44 x_42_45 x_42_47 x_42_48 x_43_46 x_43_47
 x_43_49 x_44_45 x_44_46 x_44_47 x_44_48 x_45_46 x_45_47 x_46_47 x_46_48
 x_47_48 x_47_49 x_48_49
End
